NAME : block_47.511404.tour
COMMENT : Length = 511404
COMMENT : Found by LKH-3 [Keld Helsgaun] Wed Apr 22 15:50:56 2026
TYPE : TOUR
DIMENSION : 146
TOUR_SECTION
139
128
117
105
94
82
72
61
51
40
29
17
7
8
18
30
41
52
62
73
83
95
106
118
129
130
119
107
108
97
96
84
74
63
53
42
31
19
9
10
20
21
11
12
22
23
24
35
46
34
45
56
66
76
65
55
44
33
32
43
54
64
75
85
86
2
146
1
87
98
110
109
120
131
121
132
133
122
111
99
88
89
100
112
123
134
135
124
113
101
90
78
77
67
68
57
47
36
25
13
3
4
14
26
37
48
58
69
79
91
102
114
125
136
141
142
137
126
115
103
92
80
70
59
49
38
27
15
5
6
16
28
39
50
60
71
81
93
104
116
127
138
143
144
145
140
-1
EOF
